NAME : tsp25_14.162.tour
COMMENT : Length = 162
COMMENT : Found by LKH [Keld Helsgaun]
TYPE : TOUR
DIMENSION : 25
TOUR_SECTION
1
17
19
13
22
23
15
18
2
10
9
8
24
4
5
3
16
25
12
6
14
11
21
7
20
-1
EOF
